c Output_time 26.03.2020 18:08:27_+0100 1585242507097881673
c ** Program information **
c program_name                          "QBRG_debug"
c version                               "0.3.20"
c date                                  "25.3.2020"
c gid_id                                "673970833836058123f633335630c185360d632e"
c author                                "Oliver Kullmann"
c url                                   "https://github.com/OKullmann/oklibrary/blob/master/Satisfiability/Transformers/Generators/Random/QBRG.cpp"
c ** Machine information **
c machine_name                          "chyna-Lenovo-G50-70"
c bogomips                              3791.08
c ** Compilation information **
c compiler_version                      "g++ 7.5.0"
c compilation_date                      "Mar_26_2020 11:16:30"
c compilation_options                   "--std=c++17 -pedantic -fmax-errors=5 -Wall -Wextra -g -D_GLIBCXX_DEBUG"
c NDEBUG                                0
c OPTIMIZE                              0
c ** Parameters **
c command-line                          "./QBRG_debug" "a40 40" "215*1,1|2-2,1" "" "1,t" ""
c output                                "QuBlRaGe_80_215_1585242507083895285.qdimacs"
c options                               "filtered,renamed"
c num_quantifier_blocks                 2
c  quantifier_blocks                    1:a1-40 2:e41-80
c num_clause-blocks                     1
c  clause-blocks                        215 * {1-40,1,1/2} | {41-80,1,1/2}
c num_e-seeds                           23+2=25
c  e-seeds                              1 0 1 0 3 80 2 40 0 40 1 215 2 1 1 1 1 2 2 2 1 1 2 1 1585242507083894885
p cnf 79 215
a 1 2 3 4 5 6 7 8 9 10 11 12 13 14 15 16 17 18 19 20 21 22 23 24 25 26 27 28 29 30 31 32 33 34 35 36 37 38 39 40 0
e 41 42 43 44 45 46 47 48 49 50 51 52 53 54 55 56 57 58 59 60 61 62 63 64 65 66 67 68 69 70 71 72 73 74 75 76 77 78 79 0
-3 -41 0
-4 -41 0
-8 -41 0
28 -41 0
3 41 0
-20 41 0
25 41 0
-33 41 0
2 -42 0
-5 -42 0
1 42 0
4 42 0
-9 42 0
-12 42 0
-15 42 0
21 42 0
-31 42 0
-4 -43 0
-23 -43 0
5 43 0
-7 43 0
10 43 0
13 43 0
-16 43 0
-23 43 0
6 -44 0
-12 -44 0
25 44 0
31 44 0
-35 44 0
-35 -45 0
-6 45 0
11 45 0
-21 45 0
33 45 0
-4 -46 0
28 -46 0
-33 -46 0
-37 -46 0
14 46 0
28 46 0
29 46 0
-1 -47 0
-6 -47 0
14 -47 0
-40 -47 0
40 -47 0
-30 47 0
-5 -48 0
4 48 0
-7 48 0
-26 48 0
32 48 0
-38 48 0
-1 -49 0
34 -49 0
-39 -49 0
10 49 0
-18 49 0
33 49 0
9 -50 0
18 -50 0
-2 50 0
3 50 0
10 50 0
-13 50 0
33 50 0
7 51 0
19 52 0
34 52 0
36 52 0
11 -53 0
-13 -53 0
2 53 0
24 53 0
-25 -54 0
-21 54 0
-23 54 0
23 54 0
-35 54 0
11 -55 0
16 55 0
-17 55 0
-39 55 0
18 -56 0
-23 -56 0
-9 56 0
29 56 0
-15 -57 0
28 -57 0
-22 57 0
-10 -58 0
-20 -58 0
-5 58 0
36 58 0
5 -59 0
-8 -59 0
9 -59 0
-14 -59 0
-25 -59 0
-30 -59 0
8 59 0
12 59 0
-15 59 0
22 59 0
-30 59 0
34 59 0
1 -60 0
-2 -60 0
36 -60 0
3 60 0
4 60 0
12 60 0
19 60 0
22 60 0
-13 -61 0
8 61 0
12 61 0
17 61 0
21 61 0
-28 61 0
-1 -62 0
14 -62 0
-31 -62 0
32 -62 0
-24 62 0
-26 62 0
-35 62 0
-25 -63 0
26 63 0
5 -64 0
26 -64 0
31 -64 0
2 64 0
-24 64 0
28 64 0
40 64 0
-3 -65 0
31 -65 0
-33 -65 0
33 -65 0
-39 -65 0
40 -65 0
-8 65 0
2 -66 0
-13 -66 0
15 -66 0
-35 -66 0
-36 -66 0
3 66 0
-7 66 0
-39 66 0
14 -67 0
-15 67 0
-35 67 0
40 67 0
-4 -68 0
-30 -68 0
11 68 0
12 68 0
-19 68 0
-29 68 0
-4 -69 0
9 -69 0
9 -70 0
12 -70 0
26 70 0
28 70 0
-29 70 0
-39 70 0
21 -71 0
32 -71 0
19 71 0
21 71 0
29 72 0
36 72 0
-15 -73 0
-40 -73 0
-35 73 0
37 73 0
-5 -74 0
17 -74 0
18 -74 0
-1 74 0
16 74 0
29 74 0
-30 74 0
37 74 0
-38 74 0
-16 -75 0
-29 -75 0
33 -75 0
-40 -75 0
21 75 0
35 75 0
28 -76 0
9 76 0
15 -77 0
27 -77 0
-31 -77 0
1 77 0
-16 77 0
-33 77 0
-34 77 0
34 77 0
4 -78 0
-18 -78 0
-29 -78 0
30 -78 0
12 78 0
-19 78 0
-39 78 0
33 -79 0
-11 79 0
-16 79 0
